33D32945 STP File, STP Format Version 1.0

SECTION Comments
Name "edge_n12_d2_s27"
Problem "Euclidean Steiner Tree Problem"
Remark "Generated with STPGenerator. 2 dimensions."
END

SECTION Graph
Nodes 12
END

SECTION Coordinates
DD 0 0.6598329719 0.6598329719
DD 1 0.1353963139 0.1353963139
DD 2 0.1522402149 0.1522402149
DD 3 0.1232835241 0.1232835241
DD 4 0.6977873504 0.6977873504
DD 5 0.4392972800 0.4392972800
DD 6 0.7240747631 0.7240747631
DD 7 0.4406859998 0.4406859998
DD 8 0.7210137708 0.7210137708
DD 9 0.2581046555 0.2581046555
DD 10 0.7259597377 0.7259597377
DD 11 0.3388851464 0.3388851464
END
